//Dat File

outFile="MPVSBPP_SET1_IT200_ITV1_NT1_TS3_WT1_VT1_REP7";
m=200;
o=32;
p=3;
numVTypes=1;

demand = [10, 8, 1, 8, 11, 7, 4, 5, 3, 8, 1, 5, 3, 5, 4, 9, 10, 6, 5, 10, 4, 6, 9, 4, 11, 11, 2, 11, 10, 7, 6, 10, 7, 5, 1, 1, 5, 2, 4, 1, 11, 6, 10, 4, 10, 6, 10, 6, 9, 7, 5, 1, 3, 7, 11, 7, 11, 8, 5, 6, 4, 9, 9, 2, 5, 8, 8, 6, 3, 2, 10, 2, 8, 10, 7, 4, 3, 3, 11, 6, 3, 8, 3, 6, 3, 1, 4, 2, 5, 7, 4, 4, 10, 3, 3, 5, 1, 5, 11, 4, 8, 2, 7, 11, 6, 7, 2, 11, 9, 6, 8, 6, 1, 11, 11, 7, 3, 5, 9, 8, 4, 6, 11, 11, 8, 2, 7, 2, 2, 9, 8, 7, 9, 3, 2, 7, 2, 1, 7, 2, 11, 11, 2, 7, 7, 9, 9, 1, 7, 2, 15, 14, 18, 17, 12, 13, 14, 12, 19, 15, 15, 17, 14, 15, 14, 15, 14, 14, 13, 19, 15, 17, 14, 15, 19, 16, 15, 17, 12, 16, 14, 12, 17, 18, 14, 17, 12, 18, 14, 12, 12, 19, 15, 17, 14, 13, 19, 15, 19, 15];
Depot_Cap = [30000, 30000, 30000];
Tarif = [10, 3, 7];
VeicVolume = [100];
VeicCost = [100];
VeicType = [1, 1, 1, 1, 1, 1, 1, 1, 1, 1, 1, 1, 1, 1, 1, 1, 1, 1, 1, 1, 1, 1, 1, 1, 1, 1, 1, 1, 1, 1, 1, 1];
Elect_vehicle = [[70, 100, 30], [70, 100, 30], [70, 100, 30], [70, 100, 30], [70, 100, 30], [70, 100, 30], [70, 100, 30], [70, 100, 30], [70, 100, 30], [70, 100, 30], [70, 100, 30], [70, 100, 30], [70, 100, 30], [70, 100, 30], [70, 100, 30], [70, 100, 30], [70, 100, 30], [70, 100, 30], [70, 100, 30], [70, 100, 30], [70, 100, 30], [70, 100, 30], [70, 100, 30], [70, 100, 30], [70, 100, 30], [70, 100, 30], [70, 100, 30], [70, 100, 30], [70, 100, 30], [70, 100, 30], [70, 100, 30], [70, 100, 30]];